33D32945 STP File, STP Format Version 1.0

SECTION Comment
Name "wrp3-14-20s"
Creator "Bernd Zey"
Problem "Stochastic Steiner Tree Problem"
# Stochastic Steiner tree problem instance, base file: wrp3-14.stp
# weight-scaling on, factor=0.010000 (for "big-M" edges)
# parameters:
# distribution=equal
# selectRootRandomly=0
# probabilityTerminal=33
# probabilityNonTerminal=5
# 2nd stage edge-costs in [1.1000c_e, 1.3000c_e]
END

SECTION Graph
Nodes 128
Edges 247
Scenarios 20
Root 116
E 1 6 1
E 2 7 1
E 2 111 2
E 2 112 9
E 3 113 5
E 4 111 9
E 4 112 2
E 4 114 1
E 5 12 5
E 5 107 1
E 5 108 2
E 5 109 6
E 6 7 1
E 6 8 9
E 7 109 9
E 7 110 2
E 8 107 6
E 8 109 1
E 9 108 6
E 9 109 2
E 9 110 9
E 10 11 1
E 10 13 9
E 10 16 1
E 11 17 1
E 11 103 2
E 11 104 9
E 12 104 6
E 12 105 1
E 12 106 2
E 13 104 1
E 13 105 6
E 14 103 9
E 14 104 2
E 14 106 6
E 15 22 5
E 15 99 1
E 15 100 2
E 15 101 6
E 16 17 1
E 16 18 9
E 17 101 9
E 17 102 2
E 18 99 6
E 18 101 1
E 19 100 6
E 19 101 2
E 19 102 9
E 20 21 1
E 20 23 9
E 20 26 1
E 21 27 1
E 21 95 2
E 21 96 9
E 22 96 6
E 22 97 1
E 22 98 2
E 23 96 1
E 23 97 6
E 24 95 9
E 24 96 2
E 24 98 6
E 25 32 5
E 25 91 1
E 25 92 2
E 25 93 6
E 26 27 1
E 26 28 9
E 27 93 9
E 27 94 2
E 28 91 6
E 28 93 1
E 29 92 6
E 29 93 2
E 29 94 9
E 30 31 1
E 30 33 9
E 30 36 1
E 31 37 1
E 31 87 2
E 31 88 9
E 32 88 6
E 32 89 1
E 32 90 2
E 33 88 1
E 33 89 6
E 34 87 9
E 34 88 2
E 34 90 6
E 35 42 5
E 35 83 1
E 35 84 2
E 35 85 6
E 36 37 1
E 36 38 9
E 37 85 9
E 37 86 2
E 38 83 6
E 38 85 1
E 39 84 6
E 39 85 2
E 39 86 9
E 40 41 1
E 40 43 9
E 40 46 1
E 41 47 1
E 41 79 2
E 41 80 9
E 42 80 6
E 42 81 1
E 42 82 2
E 43 80 1
E 43 81 6
E 44 79 9
E 44 80 2
E 44 82 6
E 45 52 5
E 45 75 1
E 45 76 2
E 45 77 6
E 46 47 1
E 46 48 9
E 47 77 9
E 47 78 2
E 48 75 6
E 48 77 1
E 49 76 6
E 49 77 2
E 49 78 9
E 50 51 1
E 50 53 9
E 50 69 21
E 51 57 21
E 51 71 2
E 51 72 9
E 52 72 6
E 52 73 1
E 52 74 2
E 53 72 1
E 53 73 6
E 54 71 9
E 54 72 2
E 54 74 6
E 55 56 1
E 55 58 9
E 55 61 1
E 56 62 1
E 56 67 2
E 56 68 9
E 57 68 6
E 57 69 1
E 57 70 2
E 58 68 1
E 58 69 6
E 59 67 9
E 59 68 2
E 59 70 6
E 60 65 6
E 61 62 1
E 62 65 9
E 62 66 2
E 63 65 2
E 63 66 9
E 64 114 21
E 66 67 1
E 70 71 21
E 73 75 5
E 74 76 5
E 78 79 1
E 81 83 5
E 82 84 5
E 86 87 1
E 89 91 5
E 90 92 5
E 94 95 1
E 97 99 5
E 98 100 5
E 102 103 1
E 105 107 5
E 106 108 5
E 110 111 1
E 112 113 1
E 113 114 2
E 1 115 1000
E 2 115 1000
E 3 115 1000
E 4 115 1000
E 5 116 1000
E 6 116 1000
E 7 116 1000
E 8 116 1000
E 9 116 1000
E 10 117 1000
E 11 117 1000
E 12 117 1000
E 13 117 1000
E 14 117 1000
E 15 118 1000
E 16 118 1000
E 17 118 1000
E 18 118 1000
E 19 118 1000
E 20 119 1000
E 21 119 1000
E 22 119 1000
E 23 119 1000
E 24 119 1000
E 25 120 1000
E 26 120 1000
E 27 120 1000
E 28 120 1000
E 29 120 1000
E 30 121 1000
E 31 121 1000
E 32 121 1000
E 33 121 1000
E 34 121 1000
E 35 122 1000
E 36 122 1000
E 37 122 1000
E 38 122 1000
E 39 122 1000
E 40 123 1000
E 41 123 1000
E 42 123 1000
E 43 123 1000
E 44 123 1000
E 45 124 1000
E 46 124 1000
E 47 124 1000
E 48 124 1000
E 49 124 1000
E 50 125 1000
E 51 125 1000
E 52 125 1000
E 53 125 1000
E 54 125 1000
E 55 126 1000
E 56 126 1000
E 57 126 1000
E 58 126 1000
E 59 126 1000
E 60 127 1000
E 61 127 1000
E 62 127 1000
E 63 127 1000
E 64 128 1000
END

SECTION StochasticProbabilities
SP 0.037100 0.053000 0.042400 0.053000 0.042400 0.053000 0.068800 0.047600 0.037000 0.042300 0.026400 0.037000 0.052900 0.074000 0.068700 0.058200 0.042300 0.052900 0.068700 0.042300
END

SECTION StochasticWeights
SE 2 2 2 2 2 2 2 2 2 2 2 2 2 2 2 2 2 2 2 2 
SE 2 2 2 2 2 2 2 2 2 2 2 2 2 2 2 2 2 2 2 2 
SE 3 3 3 3 3 3 3 3 3 3 3 3 3 3 3 3 3 3 3 3 
SE 10 10 10 10 11 10 10 10 10 10 11 10 10 10 10 10 10 10 10 10 
SE 6 6 6 6 6 6 6 6 6 6 6 6 6 6 6 6 6 6 6 6 
SE 10 10 10 10 11 10 10 10 10 10 10 10 10 10 10 10 10 11 10 10 
SE 3 3 3 3 3 3 3 3 3 3 3 3 3 3 3 3 3 3 3 3 
SE 2 2 2 2 2 2 2 2 2 2 2 2 2 2 2 2 2 2 2 2 
SE 6 6 6 6 6 6 6 6 6 6 6 6 6 6 6 6 6 6 6 6 
SE 2 2 2 2 2 2 2 2 2 2 2 2 2 2 2 2 2 2 2 2 
SE 3 3 3 3 3 3 3 3 3 3 3 3 3 3 3 3 3 3 3 3 
SE 7 7 7 7 7 7 7 7 7 7 7 7 7 7 7 7 7 7 7 7 
SE 2 2 2 2 2 2 2 2 2 2 2 2 2 2 2 2 2 2 2 2 
SE 11 10 11 11 10 10 10 10 11 10 10 11 11 10 10 10 11 11 10 10 
SE 11 11 11 10 10 10 10 11 11 10 10 10 10 10 10 10 10 10 11 10 
SE 3 3 3 3 3 3 3 3 3 3 3 3 3 3 3 3 3 3 3 3 
SE 7 7 7 7 7 7 7 7 7 7 7 7 7 7 7 7 7 7 7 7 
SE 2 2 2 2 2 2 2 2 2 2 2 2 2 2 2 2 2 2 2 2 
SE 7 7 7 7 7 7 7 7 7 7 7 7 7 7 7 7 7 7 7 7 
SE 3 3 3 3 3 3 3 3 3 3 3 3 3 3 3 3 3 3 3 3 
SE 11 10 11 10 10 10 10 10 10 10 11 11 11 11 10 11 10 11 10 10 
SE 2 2 2 2 2 2 2 2 2 2 2 2 2 2 2 2 2 2 2 2 
SE 10 11 10 10 10 10 10 10 10 10 10 10 11 10 10 10 10 11 10 10 
SE 2 2 2 2 2 2 2 2 2 2 2 2 2 2 2 2 2 2 2 2 
SE 2 2 2 2 2 2 2 2 2 2 2 2 2 2 2 2 2 2 2 2 
SE 3 3 3 3 3 3 3 3 3 3 3 3 3 3 3 3 3 3 3 3 
SE 11 10 11 10 10 10 10 10 10 10 11 11 10 11 11 10 11 11 11 11 
SE 7 7 7 7 7 7 7 7 7 7 7 7 7 7 7 7 7 7 7 7 
SE 2 2 2 2 2 2 2 2 2 2 2 2 2 2 2 2 2 2 2 2 
SE 3 3 3 3 3 3 3 3 3 3 3 3 3 3 3 3 3 3 3 3 
SE 2 2 2 2 2 2 2 2 2 2 2 2 2 2 2 2 2 2 2 2 
SE 7 7 7 7 7 7 7 7 7 7 7 7 7 7 7 7 7 7 7 7 
SE 10 10 11 11 10 11 11 10 10 11 10 10 10 10 10 10 10 11 10 10 
SE 3 3 3 3 3 3 3 3 3 3 3 3 3 3 3 3 3 3 3 3 
SE 7 7 7 7 7 7 7 7 7 7 7 7 7 7 7 7 7 7 7 7 
SE 6 6 6 6 6 6 6 6 6 6 6 6 6 6 6 6 6 6 6 6 
SE 2 2 2 2 2 2 2 2 2 2 2 2 2 2 2 2 2 2 2 2 
SE 3 3 3 3 3 3 3 3 3 3 3 3 3 3 3 3 3 3 3 3 
SE 7 7 7 7 7 7 7 7 7 7 7 7 7 7 7 7 7 7 7 7 
SE 2 2 2 2 2 2 2 2 2 2 2 2 2 2 2 2 2 2 2 2 
SE 11 11 11 10 10 10 10 10 11 11 11 10 10 10 10 10 10 10 10 10 
SE 11 10 10 11 11 11 10 11 10 10 11 10 10 10 11 10 10 10 11 10 
SE 3 3 3 3 3 3 3 3 3 3 3 3 3 3 3 3 3 3 3 3 
SE 7 7 7 7 7 7 7 7 7 7 7 7 7 7 7 7 7 7 7 7 
SE 2 2 2 2 2 2 2 2 2 2 2 2 2 2 2 2 2 2 2 2 
SE 7 7 7 7 7 7 7 7 7 7 7 7 7 7 7 7 7 7 7 7 
SE 3 3 3 3 3 3 3 3 3 3 3 3 3 3 3 3 3 3 3 3 
SE 10 10 10 11 10 10 10 11 10 11 10 10 10 10 10 11 10 10 10 11 
SE 2 2 2 2 2 2 2 2 2 2 2 2 2 2 2 2 2 2 2 2 
SE 10 10 11 11 10 10 10 10 10 11 10 11 10 10 10 10 10 10 11 10 
SE 2 2 2 2 2 2 2 2 2 2 2 2 2 2 2 2 2 2 2 2 
SE 2 2 2 2 2 2 2 2 2 2 2 2 2 2 2 2 2 2 2 2 
SE 3 3 3 3 3 3 3 3 3 3 3 3 3 3 3 3 3 3 3 3 
SE 10 10 10 10 11 11 10 11 10 11 10 10 11 10 10 11 10 10 11 10 
SE 7 7 7 7 7 7 7 7 7 7 7 7 7 7 7 7 7 7 7 7 
SE 2 2 2 2 2 2 2 2 2 2 2 2 2 2 2 2 2 2 2 2 
SE 3 3 3 3 3 3 3 3 3 3 3 3 3 3 3 3 3 3 3 3 
SE 2 2 2 2 2 2 2 2 2 2 2 2 2 2 2 2 2 2 2 2 
SE 7 7 7 7 7 7 7 7 7 7 7 7 7 7 7 7 7 7 7 7 
SE 11 11 11 10 10 11 10 11 11 10 10 11 10 10 11 11 10 10 10 11 
SE 3 3 3 3 3 3 3 3 3 3 3 3 3 3 3 3 3 3 3 3 
SE 7 7 7 7 7 7 7 7 7 7 7 7 7 7 7 7 7 7 7 7 
SE 6 6 6 6 6 6 6 6 6 6 6 6 6 6 6 6 6 6 6 6 
SE 2 2 2 2 2 2 2 2 2 2 2 2 2 2 2 2 2 2 2 2 
SE 3 3 3 3 3 3 3 3 3 3 3 3 3 3 3 3 3 3 3 3 
SE 7 7 7 7 7 7 7 7 7 7 7 7 7 7 7 7 7 7 7 7 
SE 2 2 2 2 2 2 2 2 2 2 2 2 2 2 2 2 2 2 2 2 
SE 10 10 10 10 10 10 10 10 10 11 11 11 11 11 11 11 10 10 11 10 
SE 10 10 10 10 11 11 11 10 10 10 10 10 10 11 11 10 10 11 10 11 
SE 3 3 3 3 3 3 3 3 3 3 3 3 3 3 3 3 3 3 3 3 
SE 7 7 7 7 7 7 7 7 7 7 7 7 7 7 7 7 7 7 7 7 
SE 2 2 2 2 2 2 2 2 2 2 2 2 2 2 2 2 2 2 2 2 
SE 7 7 7 7 7 7 7 7 7 7 7 7 7 7 7 7 7 7 7 7 
SE 3 3 3 3 3 3 3 3 3 3 3 3 3 3 3 3 3 3 3 3 
SE 11 10 10 10 10 10 10 10 10 10 11 10 11 10 10 11 10 10 10 10 
SE 2 2 2 2 2 2 2 2 2 2 2 2 2 2 2 2 2 2 2 2 
SE 11 10 10 11 11 11 10 10 10 11 10 11 11 10 10 10 10 10 10 10 
SE 2 2 2 2 2 2 2 2 2 2 2 2 2 2 2 2 2 2 2 2 
SE 2 2 2 2 2 2 2 2 2 2 2 2 2 2 2 2 2 2 2 2 
SE 3 3 3 3 3 3 3 3 3 3 3 3 3 3 3 3 3 3 3 3 
SE 10 11 10 10 10 11 10 10 10 11 10 10 10 10 10 10 10 11 10 10 
SE 7 7 7 7 7 7 7 7 7 7 7 7 7 7 7 7 7 7 7 7 
SE 2 2 2 2 2 2 2 2 2 2 2 2 2 2 2 2 2 2 2 2 
SE 3 3 3 3 3 3 3 3 3 3 3 3 3 3 3 3 3 3 3 3 
SE 2 2 2 2 2 2 2 2 2 2 2 2 2 2 2 2 2 2 2 2 
SE 7 7 7 7 7 7 7 7 7 7 7 7 7 7 7 7 7 7 7 7 
SE 10 11 10 10 11 10 10 10 10 10 10 10 10 10 10 11 10 10 10 10 
SE 3 3 3 3 3 3 3 3 3 3 3 3 3 3 3 3 3 3 3 3 
SE 7 7 7 7 7 7 7 7 7 7 7 7 7 7 7 7 7 7 7 7 
SE 6 6 6 6 6 6 6 6 6 6 6 6 6 6 6 6 6 6 6 6 
SE 2 2 2 2 2 2 2 2 2 2 2 2 2 2 2 2 2 2 2 2 
SE 3 3 3 3 3 3 3 3 3 3 3 3 3 3 3 3 3 3 3 3 
SE 7 7 7 7 7 7 7 7 7 7 7 7 7 7 7 7 7 7 7 7 
SE 2 2 2 2 2 2 2 2 2 2 2 2 2 2 2 2 2 2 2 2 
SE 11 10 10 10 10 11 10 10 10 10 10 11 10 11 10 10 10 10 10 10 
SE 10 10 10 10 11 10 10 10 11 10 10 10 10 10 10 10 10 11 10 10 
SE 3 3 3 3 3 3 3 3 3 3 3 3 3 3 3 3 3 3 3 3 
SE 7 7 7 7 7 7 7 7 7 7 7 7 7 7 7 7 7 7 7 7 
SE 2 2 2 2 2 2 2 2 2 2 2 2 2 2 2 2 2 2 2 2 
SE 7 7 7 7 7 7 7 7 7 7 7 7 7 7 7 7 7 7 7 7 
SE 3 3 3 3 3 3 3 3 3 3 3 3 3 3 3 3 3 3 3 3 
SE 11 10 11 10 10 10 11 11 10 10 11 11 10 10 11 11 11 10 10 11 
SE 2 2 2 2 2 2 2 2 2 2 2 2 2 2 2 2 2 2 2 2 
SE 10 10 10 10 10 10 10 10 11 10 10 10 11 10 10 10 10 11 10 11 
SE 2 2 2 2 2 2 2 2 2 2 2 2 2 2 2 2 2 2 2 2 
SE 2 2 2 2 2 2 2 2 2 2 2 2 2 2 2 2 2 2 2 2 
SE 3 3 3 3 3 3 3 3 3 3 3 3 3 3 3 3 3 3 3 3 
SE 10 11 10 10 11 10 11 10 10 10 10 10 11 11 10 11 11 10 11 10 
SE 7 7 7 7 7 7 7 7 7 7 7 7 7 7 7 7 7 7 7 7 
SE 2 2 2 2 2 2 2 2 2 2 2 2 2 2 2 2 2 2 2 2 
SE 3 3 3 3 3 3 3 3 3 3 3 3 3 3 3 3 3 3 3 3 
SE 2 2 2 2 2 2 2 2 2 2 2 2 2 2 2 2 2 2 2 2 
SE 7 7 7 7 7 7 7 7 7 7 7 7 7 7 7 7 7 7 7 7 
SE 11 10 10 10 11 10 11 11 10 11 11 10 10 10 10 11 11 11 10 11 
SE 3 3 3 3 3 3 3 3 3 3 3 3 3 3 3 3 3 3 3 3 
SE 7 7 7 7 7 7 7 7 7 7 7 7 7 7 7 7 7 7 7 7 
SE 6 6 6 6 6 6 6 6 6 6 6 6 6 6 6 6 6 6 6 6 
SE 2 2 2 2 2 2 2 2 2 2 2 2 2 2 2 2 2 2 2 2 
SE 3 3 3 3 3 3 3 3 3 3 3 3 3 3 3 3 3 3 3 3 
SE 7 7 7 7 7 7 7 7 7 7 7 7 7 7 7 7 7 7 7 7 
SE 2 2 2 2 2 2 2 2 2 2 2 2 2 2 2 2 2 2 2 2 
SE 10 10 10 11 11 10 11 10 10 10 10 10 11 10 10 11 10 11 10 11 
SE 11 11 11 10 10 10 11 10 10 10 10 10 11 10 10 10 11 10 10 11 
SE 3 3 3 3 3 3 3 3 3 3 3 3 3 3 3 3 3 3 3 3 
SE 7 7 7 7 7 7 7 7 7 7 7 7 7 7 7 7 7 7 7 7 
SE 2 2 2 2 2 2 2 2 2 2 2 2 2 2 2 2 2 2 2 2 
SE 7 7 7 7 7 7 7 7 7 7 7 7 7 7 7 7 7 7 7 7 
SE 3 3 3 3 3 3 3 3 3 3 3 3 3 3 3 3 3 3 3 3 
SE 11 10 11 10 11 11 10 10 10 11 11 11 10 10 10 11 10 10 11 10 
SE 2 2 2 2 2 2 2 2 2 2 2 2 2 2 2 2 2 2 2 2 
SE 10 10 10 10 10 10 10 10 10 10 11 10 10 10 10 10 11 11 11 11 
SE 27 27 25 26 24 27 27 25 25 26 24 24 24 27 24 27 26 25 26 25 
SE 24 26 27 24 24 27 24 24 26 24 26 24 24 27 25 24 27 27 24 24 
SE 3 3 3 3 3 3 3 3 3 3 3 3 3 3 3 3 3 3 3 3 
SE 10 10 10 10 10 11 10 10 10 10 11 11 10 11 10 10 10 10 10 10 
SE 7 7 7 7 7 7 7 7 7 7 7 7 7 7 7 7 7 7 7 7 
SE 2 2 2 2 2 2 2 2 2 2 2 2 2 2 2 2 2 2 2 2 
SE 3 3 3 3 3 3 3 3 3 3 3 3 3 3 3 3 3 3 3 3 
SE 2 2 2 2 2 2 2 2 2 2 2 2 2 2 2 2 2 2 2 2 
SE 7 7 7 7 7 7 7 7 7 7 7 7 7 7 7 7 7 7 7 7 
SE 10 10 10 10 10 11 10 11 10 10 10 11 10 10 11 10 11 10 11 11 
SE 3 3 3 3 3 3 3 3 3 3 3 3 3 3 3 3 3 3 3 3 
SE 7 7 7 7 7 7 7 7 7 7 7 7 7 7 7 7 7 7 7 7 
SE 2 2 2 2 2 2 2 2 2 2 2 2 2 2 2 2 2 2 2 2 
SE 10 10 10 10 11 10 10 11 10 10 11 11 10 10 10 10 10 10 10 11 
SE 2 2 2 2 2 2 2 2 2 2 2 2 2 2 2 2 2 2 2 2 
SE 2 2 2 2 2 2 2 2 2 2 2 2 2 2 2 2 2 2 2 2 
SE 3 3 3 3 3 3 3 3 3 3 3 3 3 3 3 3 3 3 3 3 
SE 11 11 10 11 10 10 10 11 11 10 10 11 10 11 11 10 11 10 10 11 
SE 7 7 7 7 7 7 7 7 7 7 7 7 7 7 7 7 7 7 7 7 
SE 2 2 2 2 2 2 2 2 2 2 2 2 2 2 2 2 2 2 2 2 
SE 3 3 3 3 3 3 3 3 3 3 3 3 3 3 3 3 3 3 3 3 
SE 2 2 2 2 2 2 2 2 2 2 2 2 2 2 2 2 2 2 2 2 
SE 7 7 7 7 7 7 7 7 7 7 7 7 7 7 7 7 7 7 7 7 
SE 10 10 11 10 10 11 10 10 11 10 10 11 11 11 10 10 11 10 10 11 
SE 3 3 3 3 3 3 3 3 3 3 3 3 3 3 3 3 3 3 3 3 
SE 7 7 7 7 7 7 7 7 7 7 7 7 7 7 7 7 7 7 7 7 
SE 7 7 7 7 7 7 7 7 7 7 7 7 7 7 7 7 7 7 7 7 
SE 2 2 2 2 2 2 2 2 2 2 2 2 2 2 2 2 2 2 2 2 
SE 10 11 10 10 10 10 11 11 11 11 11 11 10 11 10 11 11 10 10 10 
SE 3 3 3 3 3 3 3 3 3 3 3 3 3 3 3 3 3 3 3 3 
SE 3 3 3 3 3 3 3 3 3 3 3 3 3 3 3 3 3 3 3 3 
SE 10 11 10 10 11 11 10 10 10 10 10 11 10 10 10 10 11 11 10 10 
SE 24 24 25 24 24 24 25 26 25 25 27 24 27 27 24 24 26 25 27 25 
SE 2 2 2 2 2 2 2 2 2 2 2 2 2 2 2 2 2 2 2 2 
SE 24 25 25 27 26 24 27 26 24 26 24 25 24 27 24 25 25 26 26 24 
SE 6 6 6 6 6 6 6 6 6 6 6 6 6 6 6 6 6 6 6 6 
SE 6 6 6 6 6 6 6 6 6 6 6 6 6 6 6 6 6 6 6 6 
SE 2 2 2 2 2 2 2 2 2 2 2 2 2 2 2 2 2 2 2 2 
SE 6 6 6 6 6 6 6 6 6 6 6 6 6 6 6 6 6 6 6 6 
SE 6 6 6 6 6 6 6 6 6 6 6 6 6 6 6 6 6 6 6 6 
SE 2 2 2 2 2 2 2 2 2 2 2 2 2 2 2 2 2 2 2 2 
SE 6 6 6 6 6 6 6 6 6 6 6 6 6 6 6 6 6 6 6 6 
SE 6 6 6 6 6 6 6 6 6 6 6 6 6 6 6 6 6 6 6 6 
SE 2 2 2 2 2 2 2 2 2 2 2 2 2 2 2 2 2 2 2 2 
SE 6 6 6 6 6 6 6 6 6 6 6 6 6 6 6 6 6 6 6 6 
SE 6 6 6 6 6 6 6 6 6 6 6 6 6 6 6 6 6 6 6 6 
SE 2 2 2 2 2 2 2 2 2 2 2 2 2 2 2 2 2 2 2 2 
SE 6 6 6 6 6 6 6 6 6 6 6 6 6 6 6 6 6 6 6 6 
SE 6 6 6 6 6 6 6 6 6 6 6 6 6 6 6 6 6 6 6 6 
SE 2 2 2 2 2 2 2 2 2 2 2 2 2 2 2 2 2 2 2 2 
SE 2 2 2 2 2 2 2 2 2 2 2 2 2 2 2 2 2 2 2 2 
SE 3 3 3 3 3 3 3 3 3 3 3 3 3 3 3 3 3 3 3 3 
SE 1172 1182 1268 1250 1294 1206 1244 1136 1155 1256 1153 1200 1151 1138 1240 1222 1253 1128 1230 1278 
SE 1176 1114 1103 1119 1150 1168 1272 1234 1246 1132 1118 1202 1149 1234 1144 1286 1277 1284 1195 1167 
SE 1186 1214 1293 1291 1267 1244 1211 1213 1170 1168 1270 1235 1127 1175 1217 1128 1164 1224 1179 1232 
SE 1289 1244 1213 1265 1288 1287 1151 1263 1198 1209 1160 1195 1262 1192 1191 1259 1174 1242 1274 1110 
SE 1194 1131 1154 1105 1196 1135 1113 1261 1169 1212 1176 1137 1174 1140 1189 1196 1276 1200 1278 1261 
SE 1115 1269 1172 1166 1110 1229 1113 1271 1209 1146 1241 1150 1144 1221 1157 1163 1294 1262 1166 1165 
SE 1121 1112 1258 1244 1108 1114 1128 1210 1192 1175 1103 1147 1189 1107 1149 1286 1251 1102 1264 1245 
SE 1273 1217 1275 1107 1226 1204 1185 1252 1199 1136 1106 1134 1197 1128 1114 1280 1117 1200 1141 1136 
SE 1188 1103 1197 1297 1261 1144 1177 1160 1219 1169 1228 1109 1112 1283 1259 1141 1220 1167 1159 1115 
SE 1273 1109 1139 1229 1171 1110 1269 1129 1182 1213 1185 1214 1245 1151 1143 1127 1115 1114 1211 1250 
SE 1151 1129 1286 1163 1247 1276 1279 1191 1216 1247 1287 1283 1117 1284 1145 1217 1218 1141 1127 1169 
SE 1161 1224 1213 1189 1281 1242 1103 1200 1221 1187 1174 1158 1253 1198 1197 1121 1232 1255 1274 1131 
SE 1224 1286 1169 1295 1237 1120 1295 1144 1210 1138 1264 1116 1181 1168 1198 1171 1262 1229 1136 1135 
SE 1201 1150 1200 1279 1202 1168 1238 1201 1182 1275 1246 1265 1267 1224 1300 1237 1181 1167 1125 1109 
SE 1299 1164 1264 1254 1193 1190 1128 1266 1297 1271 1213 1156 1178 1152 1253 1249 1294 1253 1267 1190 
SE 1236 1118 1197 1232 1267 1166 1226 1259 1111 1200 1228 1141 1211 1231 1120 1261 1195 1245 1129 1217 
SE 1237 1270 1244 1158 1209 1223 1252 1117 1296 1261 1241 1112 1285 1281 1238 1119 1264 1260 1150 1190 
SE 1106 1249 1261 1128 1292 1254 1234 1282 1218 1293 1216 1253 1268 1105 1188 1178 1189 1187 1249 1216 
SE 1113 1157 1282 1191 1180 1269 1226 1186 1273 1141 1163 1230 1103 1198 1226 1231 1121 1140 1216 1291 
SE 1189 1253 1130 1222 1217 1150 1105 1283 1262 1244 1256 1229 1278 1224 1134 1165 1205 1152 1253 1248 
SE 1242 1227 1181 1137 1264 1219 1183 1253 1260 1276 1241 1179 1248 1267 1264 1100 1186 1198 1137 1246 
SE 1158 1242 1157 1137 1212 1178 1181 1151 1225 1171 1258 1212 1218 1225 1191 1300 1202 1217 1108 1247 
SE 1186 1288 1206 1271 1262 1259 1277 1203 1234 1214 1147 1124 1245 1167 1181 1274 1177 1240 1101 1299 
SE 1202 1281 1106 1151 1106 1170 1248 1194 1253 1161 1298 1194 1145 1271 1219 1144 1279 1254 1271 1148 
SE 1175 1123 1108 1250 1216 1265 1224 1248 1165 1152 1194 1102 1213 1146 1248 1187 1211 1140 1250 1265 
SE 1233 1131 1198 1182 1253 1114 1149 1230 1237 1153 1232 1220 1230 1121 1148 1189 1292 1153 1260 1195 
SE 1198 1292 1235 1173 1157 1195 1125 1138 1129 1272 1119 1239 1151 1136 1166 1205 1219 1296 1279 1200 
SE 1216 1294 1163 1249 1233 1164 1200 1162 1196 1190 1253 1234 1116 1117 1200 1176 1219 1160 1262 1146 
SE 1261 1133 1133 1113 1205 1169 1245 1136 1151 1103 1269 1173 1186 1264 1144 1153 1200 1116 1242 1261 
SE 1176 1234 1255 1108 1260 1245 1147 1122 1191 1103 1204 1278 1242 1124 1166 1269 1141 1223 1224 1192 
SE 1226 1138 1157 1185 1252 1121 1242 1287 1131 1234 1110 1182 1103 1138 1254 1103 1268 1293 1226 1199 
SE 1132 1166 1100 1214 1148 1275 1188 1172 1156 1210 1121 1273 1188 1102 1285 1225 1102 1145 1172 1239 
SE 1202 1198 1208 1127 1109 1112 1270 1206 1287 1286 1172 1129 1291 1259 1211 1204 1268 1156 1118 1209 
SE 1263 1252 1150 1175 1168 1215 1103 1150 1201 1252 1230 1116 1130 1163 1121 1131 1131 1216 1255 1130 
SE 1271 1260 1163 1178 1135 1261 1189 1285 1254 1118 1181 1117 1149 1144 1175 1184 1177 1237 1145 1199 
SE 1246 1230 1262 1283 1206 1298 1283 1166 1105 1197 1248 1167 1164 1249 1250 1300 1243 1257 1296 1119 
SE 1278 1171 1172 1191 1178 1294 1116 1120 1109 1299 1170 1167 1125 1284 1178 1144 1275 1127 1121 1196 
SE 1242 1272 1120 1272 1295 1275 1218 1144 1146 1193 1134 1164 1238 1152 1224 1119 1278 1239 1259 1294 
SE 1218 1146 1186 1291 1282 1151 1167 1269 1154 1184 1204 1151 1211 1277 1214 1279 1210 1156 1287 1156 
SE 1115 1174 1219 1187 1290 1137 1144 1130 1178 1167 1299 1126 1288 1216 1287 1186 1195 1194 1180 1161 
SE 1164 1281 1160 1201 1165 1235 1136 1173 1178 1257 1169 1278 1132 1153 1217 1146 1293 1204 1169 1194 
SE 1269 1126 1171 1103 1228 1127 1145 1109 1221 1130 1190 1133 1229 1210 1260 1145 1278 1147 1113 1175 
SE 1177 1248 1283 1226 1220 1230 1298 1180 1299 1204 1122 1135 1190 1264 1133 1207 1277 1299 1103 1142 
SE 1289 1217 1179 1195 1252 1256 1130 1218 1288 1295 1283 1245 1213 1171 1265 1167 1204 1132 1155 1229 
SE 1170 1126 1222 1282 1281 1145 1284 1210 1102 1255 1287 1248 1195 1133 1209 1282 1159 1164 1289 1134 
SE 1125 1111 1196 1180 1112 1270 1276 1145 1295 1174 1185 1191 1268 1116 1286 1106 1270 1202 1271 1183 
SE 1174 1235 1276 1277 1218 1121 1207 1126 1299 1144 1210 1286 1275 1101 1235 1128 1249 1228 1135 1145 
SE 1257 1246 1115 1139 1189 1218 1185 1178 1249 1215 1227 1261 1129 1264 1298 1252 1122 1123 1289 1224 
SE 1131 1211 1156 1158 1103 1174 1209 1278 1213 1166 1251 1294 1186 1121 1123 1184 1108 1239 1169 1249 
SE 1137 1292 1257 1117 1298 1290 1132 1162 1221 1136 1273 1215 1228 1199 1160 1259 1271 1218 1251 1287 
SE 1297 1198 1145 1212 1256 1268 1141 1110 1210 1108 1182 1139 1258 1138 1131 1116 1177 1176 1241 1172 
SE 1273 1288 1187 1195 1268 1293 1242 1180 1122 1292 1192 1172 1133 1239 1288 1185 1144 1288 1206 1194 
SE 1195 1184 1265 1104 1159 1168 1164 1213 1296 1207 1180 1278 1296 1275 1201 1209 1122 1134 1209 1183 
SE 1182 1136 1251 1132 1217 1226 1268 1214 1294 1222 1179 1163 1202 1205 1162 1291 1255 1115 1192 1170 
SE 1174 1269 1143 1246 1224 1112 1190 1274 1225 1102 1189 1267 1129 1159 1206 1179 1122 1241 1126 1193 
SE 1220 1207 1273 1254 1275 1283 1288 1161 1160 1209 1274 1230 1158 1120 1299 1246 1183 1174 1159 1147 
SE 1265 1117 1299 1215 1120 1190 1117 1294 1231 1275 1261 1233 1132 1177 1211 1129 1246 1168 1151 1215 
SE 1222 1210 1279 1119 1232 1207 1215 1262 1255 1224 1158 1155 1180 1195 1272 1284 1241 1186 1104 1293 
SE 1135 1201 1287 1153 1157 1146 1137 1173 1256 1299 1227 1114 1174 1137 1198 1122 1252 1235 1120 1194 
SE 1175 1150 1132 1178 1175 1259 1212 1129 1282 1229 1229 1105 1168 1140 1255 1132 1297 1184 1294 1176 
SE 1248 1144 1183 1278 1191 1101 1213 1234 1296 1227 1212 1133 1122 1220 1137 1203 1232 1108 1178 1134 
SE 1212 1189 1143 1238 1108 1117 1279 1109 1238 1182 1187 1196 1127 1125 1102 1276 1220 1177 1197 1243 
SE 1157 1166 1132 1292 1223 1234 1251 1151 1289 1289 1200 1228 1256 1293 1189 1257 1299 1179 1115 1265 
SE 1150 1242 1291 1256 1150 1113 1182 1139 1232 1212 1285 1112 1263 1128 1198 1106 1199 1115 1146 1243 
END

SECTION StochasticTerminals
ST 1 0 0 0 0 0 0 0 0 1 0 0 0 0 0 0 0 0 0 0 0 
ST 2 0 0 0 0 0 0 0 0 0 0 0 0 0 0 0 0 0 0 0 0 
ST 3 0 1 0 0 0 0 0 0 0 0 0 0 0 0 0 0 0 0 0 0 
ST 4 0 0 0 0 1 1 0 0 0 0 0 0 0 0 0 0 0 0 0 0 
ST 5 0 0 0 0 0 0 0 0 0 0 0 0 0 0 1 0 0 0 0 0 
ST 6 1 0 0 0 0 0 0 0 0 0 0 0 0 0 0 0 0 0 0 0 
ST 7 0 1 0 0 0 0 0 0 0 0 0 0 0 0 0 0 0 0 0 0 
ST 8 1 0 0 0 0 0 0 0 0 0 0 0 0 0 0 0 0 0 0 0 
ST 9 0 0 0 0 0 0 0 0 0 0 0 0 0 0 0 0 0 0 0 0 
ST 10 0 0 0 0 0 0 0 0 0 0 0 0 0 0 0 0 0 0 0 0 
ST 11 0 0 0 0 0 1 0 0 0 0 0 0 1 0 0 0 0 0 0 0 
ST 12 0 0 0 0 0 0 0 0 0 0 0 0 0 0 0 0 0 0 0 0 
ST 13 0 0 0 0 0 0 0 0 0 0 0 0 0 0 0 0 0 0 0 0 
ST 14 0 0 0 0 0 0 0 0 0 0 0 0 0 0 0 0 0 0 0 0 
ST 15 0 0 0 0 0 0 1 0 0 0 0 0 0 0 0 0 0 0 0 0 
ST 16 0 0 0 0 0 0 0 0 0 0 0 0 0 0 0 0 0 1 0 0 
ST 17 1 0 0 0 0 0 0 0 0 0 0 0 1 0 0 0 0 0 0 0 
ST 18 0 0 0 0 1 0 0 0 0 0 0 0 0 0 0 0 0 0 0 0 
ST 19 0 0 0 0 0 0 0 0 0 0 0 0 0 0 0 1 0 0 0 0 
ST 20 0 0 0 0 0 0 0 0 0 0 0 0 0 0 0 0 0 0 0 0 
ST 21 0 0 0 0 0 0 0 0 0 0 0 0 0 0 0 0 0 0 0 0 
ST 22 0 0 0 0 0 0 0 0 0 0 0 0 0 0 0 0 0 0 0 0 
ST 23 0 0 0 0 0 0 0 0 1 0 0 0 0 0 0 0 0 0 0 0 
ST 24 0 0 0 0 0 1 0 0 0 0 0 0 0 0 1 0 0 0 0 0 
ST 25 1 0 0 0 0 0 0 0 0 0 0 0 0 0 0 0 0 0 0 0 
ST 26 0 0 0 0 0 0 0 0 0 0 1 0 0 0 0 0 0 0 0 0 
ST 27 0 0 0 0 0 0 0 0 0 0 0 0 0 0 0 0 0 0 0 0 
ST 28 0 0 0 0 0 0 0 0 0 0 0 0 0 0 0 0 0 0 0 0 
ST 29 0 0 0 0 0 0 0 0 0 0 0 0 0 0 0 0 0 0 0 0 
ST 30 0 0 0 0 0 0 0 0 0 0 0 0 0 0 0 0 0 0 0 0 
ST 31 0 0 0 0 1 0 0 1 0 0 0 0 0 0 0 1 0 0 0 0 
ST 32 0 0 0 0 0 0 0 0 0 0 0 0 0 0 0 0 0 0 0 0 
ST 33 0 0 0 0 0 0 0 0 0 0 0 0 0 0 0 0 0 0 0 0 
ST 34 0 0 0 0 0 0 0 0 0 0 0 0 0 0 0 0 0 0 0 0 
ST 35 0 0 0 0 0 0 0 0 0 0 0 0 0 0 0 0 0 0 0 0 
ST 36 0 0 0 0 0 0 0 0 0 0 0 0 0 0 0 0 0 0 0 0 
ST 37 0 0 0 0 0 0 0 1 0 0 0 0 0 1 0 0 0 0 0 0 
ST 38 0 0 0 1 0 0 0 0 0 0 0 0 0 0 0 0 0 0 0 0 
ST 39 0 0 0 0 0 0 0 0 0 0 0 0 0 0 0 0 0 0 0 0 
ST 40 0 0 0 0 0 0 0 0 0 0 0 0 0 0 0 0 0 0 0 0 
ST 41 0 0 0 0 0 0 0 0 0 0 0 0 1 0 0 1 0 0 0 0 
ST 42 0 1 0 0 0 0 0 0 0 0 0 0 0 0 1 0 0 0 0 0 
ST 43 0 0 0 0 0 0 0 0 0 0 0 0 0 0 0 0 0 1 0 0 
ST 44 0 0 0 0 0 0 1 1 0 0 0 0 0 0 1 0 0 0 0 0 
ST 45 0 0 0 0 0 0 0 0 1 0 0 0 0 0 0 0 0 0 0 1 
ST 46 0 0 0 0 0 0 0 0 0 0 0 0 0 0 0 0 0 0 0 0 
ST 47 0 0 0 0 0 0 0 0 0 0 0 0 1 0 0 0 0 0 0 0 
ST 48 0 0 0 0 0 0 0 0 0 0 0 0 0 0 0 0 0 0 0 0 
ST 49 0 0 0 0 0 0 0 0 0 0 1 0 0 0 0 0 0 0 0 0 
ST 50 0 0 0 0 0 0 0 0 0 0 0 0 0 0 0 0 0 1 0 0 
ST 51 0 0 0 0 0 1 0 0 0 0 0 0 0 1 0 0 0 0 0 0 
ST 52 0 0 0 0 0 0 1 0 0 0 0 0 0 0 0 0 0 0 1 0 
ST 53 0 0 0 0 0 0 0 0 0 0 0 0 0 0 0 0 1 0 0 0 
ST 54 0 0 0 1 0 0 0 0 0 0 0 0 0 0 0 0 0 0 0 0 
ST 55 0 0 0 0 0 0 0 0 0 0 0 0 0 0 1 0 0 0 0 0 
ST 56 0 0 0 0 0 0 0 0 0 0 0 0 0 0 0 0 0 0 0 0 
ST 57 0 0 0 0 0 0 0 0 0 0 0 0 0 1 0 0 0 0 0 1 
ST 58 0 0 0 0 0 0 0 1 0 0 0 0 0 0 1 0 0 0 0 0 
ST 59 0 0 0 0 0 0 0 0 0 0 0 0 0 0 1 0 0 0 0 0 
ST 60 0 0 0 0 0 0 0 0 0 0 0 0 0 0 0 0 0 0 0 0 
ST 61 0 0 0 0 0 0 0 0 0 0 0 0 0 0 0 0 0 0 0 0 
ST 62 0 0 0 0 0 0 0 0 0 1 0 0 0 0 0 0 0 0 0 0 
ST 63 0 0 0 0 0 0 0 1 0 0 0 0 0 0 0 1 0 0 0 0 
ST 64 0 0 0 0 0 0 0 0 0 0 0 0 0 0 0 0 0 0 0 0 
ST 65 0 0 0 0 0 0 1 0 1 0 0 0 0 0 0 0 0 0 0 0 
ST 66 0 1 0 0 0 0 0 0 0 0 0 0 0 0 0 0 0 0 0 0 
ST 67 0 0 0 0 0 0 0 0 0 0 0 0 0 0 0 0 0 0 0 0 
ST 68 0 1 0 0 0 0 0 0 0 0 0 0 0 0 0 0 0 0 0 0 
ST 69 0 0 0 0 0 0 0 0 0 0 0 0 0 0 0 0 0 0 0 0 
ST 70 0 0 0 0 0 0 0 0 0 0 1 0 0 0 0 0 0 0 0 0 
ST 71 0 0 1 0 0 0 0 0 0 0 0 0 0 0 0 0 0 0 0 0 
ST 72 0 0 0 0 0 0 0 0 0 0 0 0 0 0 0 0 0 0 0 0 
ST 73 0 0 1 0 0 0 0 0 0 0 0 0 0 0 0 0 1 0 0 0 
ST 74 0 0 0 0 0 0 0 0 0 0 0 0 0 0 0 0 0 0 0 0 
ST 75 0 0 0 0 0 0 0 0 0 0 0 0 0 0 0 0 0 0 0 0 
ST 76 0 0 0 0 0 0 0 0 0 0 0 0 0 0 0 0 0 1 0 0 
ST 77 0 0 0 0 0 0 0 0 0 0 0 0 0 0 0 1 0 0 0 0 
ST 78 1 0 0 0 0 0 0 0 0 0 0 0 0 0 0 0 0 0 0 0 
ST 79 0 0 0 0 0 0 0 0 0 1 0 0 1 0 0 0 0 0 0 0 
ST 80 0 0 0 0 0 0 0 0 0 0 0 0 0 0 0 0 0 0 0 0 
ST 81 0 0 0 0 0 1 0 1 0 0 0 0 0 0 0 0 0 0 0 1 
ST 82 0 1 0 0 1 0 0 0 0 0 0 0 0 0 0 0 0 0 0 0 
ST 83 0 0 0 0 0 0 1 0 0 0 0 0 0 0 0 0 0 0 1 0 
ST 84 0 0 0 0 0 0 0 0 0 0 0 0 0 0 0 0 0 0 0 0 
ST 85 0 0 1 0 0 0 0 0 0 0 0 0 1 0 0 0 0 0 0 0 
ST 86 0 0 0 0 0 0 0 0 0 0 0 0 0 0 0 0 1 0 0 0 
ST 87 0 0 0 0 0 0 0 0 0 0 0 0 0 0 0 0 0 0 0 0 
ST 88 0 0 0 0 0 0 0 0 0 0 0 0 0 0 0 0 0 0 0 0 
ST 89 0 0 0 0 0 0 0 0 0 0 0 0 0 0 0 0 0 0 0 0 
ST 90 0 0 0 0 0 0 0 0 0 0 0 0 0 0 0 0 0 0 0 0 
ST 91 0 0 0 0 0 0 0 0 0 0 0 0 0 0 0 0 0 0 0 0 
ST 92 0 0 0 0 1 0 1 0 0 0 0 0 0 0 0 0 0 0 0 0 
ST 93 0 0 0 0 0 0 0 0 0 0 0 0 0 0 0 0 0 0 0 0 
ST 94 0 0 0 0 0 0 0 0 0 0 0 0 1 0 0 0 0 0 0 0 
ST 95 0 0 0 0 1 0 0 0 0 0 0 0 0 0 0 0 0 0 0 0 
ST 96 0 0 0 0 0 0 0 0 0 0 0 0 0 0 0 1 0 0 0 0 
ST 97 0 0 0 0 0 0 0 0 0 0 0 0 0 1 0 0 0 0 0 0 
ST 98 0 0 0 0 0 0 0 0 0 0 0 0 0 0 0 0 0 0 0 0 
ST 99 0 0 0 0 0 0 0 0 0 0 0 0 0 0 0 0 0 0 0 0 
ST 100 0 0 0 0 0 0 0 0 0 0 0 0 0 0 0 0 0 0 0 0 
ST 101 1 0 1 0 0 0 0 0 0 0 0 0 0 0 0 0 0 0 0 0 
ST 102 0 0 0 0 0 1 0 0 0 0 0 0 0 0 0 0 0 0 0 1 
ST 103 0 0 0 0 0 0 0 1 0 0 0 0 0 0 0 0 0 0 0 0 
ST 104 0 0 1 0 0 0 0 0 0 0 0 0 0 0 0 0 0 1 0 0 
ST 105 1 1 0 0 0 0 0 0 0 0 0 0 0 0 0 0 0 0 1 1 
ST 106 0 0 0 0 0 0 0 0 0 0 0 0 0 0 0 0 0 0 0 0 
ST 107 0 0 0 0 0 0 0 0 1 0 0 1 0 0 0 0 0 1 0 0 
ST 108 0 0 0 0 0 0 0 0 0 0 0 0 0 0 0 0 0 0 0 0 
ST 109 0 0 0 0 1 0 0 0 0 0 0 0 0 0 0 0 0 1 0 0 
ST 110 0 0 0 0 0 0 0 0 0 0 0 0 0 0 0 0 1 0 0 0 
ST 111 0 0 0 0 0 0 0 0 0 0 0 0 1 0 0 0 0 0 0 0 
ST 112 0 0 0 0 0 0 0 0 0 0 0 0 0 0 0 0 0 0 0 0 
ST 113 1 0 0 0 0 0 0 0 0 0 0 0 0 0 1 0 1 0 0 0 
ST 114 0 0 0 0 0 0 1 0 0 0 0 0 0 0 0 0 0 0 0 1 
ST 115 0 0 1 0 1 1 1 0 0 0 1 1 0 0 0 1 1 0 0 0 
ST 116 1 1 1 1 1 1 1 1 1 1 1 1 1 1 1 1 1 1 1 1 
ST 117 0 1 0 0 0 1 0 0 1 0 0 0 0 1 1 0 0 0 0 0 
ST 118 1 0 0 1 0 0 0 0 0 1 0 0 1 0 0 0 1 1 0 1 
ST 119 0 0 0 0 1 0 1 0 1 0 1 0 1 0 0 0 1 0 0 0 
ST 120 0 0 0 1 1 1 1 1 0 1 0 0 1 0 0 0 0 0 0 0 
ST 121 0 0 0 1 1 0 0 0 0 0 1 1 0 1 0 0 0 1 0 1 
ST 122 0 1 1 0 0 0 1 0 1 0 1 1 0 1 0 1 0 0 0 1 
ST 123 1 1 0 1 0 0 0 0 0 0 0 0 1 1 0 0 0 0 0 1 
ST 124 0 0 0 0 0 1 0 0 0 0 0 0 0 0 0 0 0 1 0 0 
ST 125 0 0 1 0 1 0 0 1 1 0 0 1 0 0 1 0 1 0 0 0 
ST 126 0 0 0 1 0 0 1 0 0 0 1 1 0 0 0 1 1 0 1 0 
ST 127 0 0 1 0 0 1 0 0 0 1 0 1 1 1 0 0 0 1 1 0 
ST 128 1 0 0 0 1 1 0 0 0 0 0 0 1 1 0 1 1 0 0 0 
END


SECTION Coordinates
DD 1 12849 13861
DD 2 12849 13862
DD 3 12864 13862
DD 4 12858 13864
DD 5 12833 13862
DD 6 12848 13861
DD 7 12848 13862
DD 8 12839 13861
DD 9 12839 13864
DD 10 12813 13861
DD 11 12813 13862
DD 12 12828 13862
DD 13 12822 13861
DD 14 12822 13864
DD 15 12797 13862
DD 16 12812 13861
DD 17 12812 13862
DD 18 12803 13861
DD 19 12803 13864
DD 20 12777 13861
DD 21 12777 13862
DD 22 12792 13862
DD 23 12786 13861
DD 24 12786 13864
DD 25 12761 13862
DD 26 12776 13861
DD 27 12776 13862
DD 28 12767 13861
DD 29 12767 13864
DD 30 12741 13861
DD 31 12741 13862
DD 32 12756 13862
DD 33 12750 13861
DD 34 12750 13864
DD 35 12725 13862
DD 36 12740 13861
DD 37 12740 13862
DD 38 12731 13861
DD 39 12731 13864
DD 40 12705 13861
DD 41 12705 13862
DD 42 12720 13862
DD 43 12714 13861
DD 44 12714 13864
DD 45 12689 13862
DD 46 12704 13861
DD 47 12704 13862
DD 48 12695 13861
DD 49 12695 13864
DD 50 12669 13861
DD 51 12669 13862
DD 52 12684 13862
DD 53 12678 13861
DD 54 12678 13864
DD 55 12633 13861
DD 56 12633 13862
DD 57 12648 13862
DD 58 12642 13861
DD 59 12642 13864
DD 60 12617 13862
DD 61 12632 13861
DD 62 12632 13862
DD 63 12623 13864
DD 64 12859 13885
DD 65 12623 13862
DD 66 12632 13864
DD 67 12633 13864
DD 68 12642 13862
DD 69 12648 13861
DD 70 12648 13864
DD 71 12669 13864
DD 72 12678 13862
DD 73 12684 13861
DD 74 12684 13864
DD 75 12689 13861
DD 76 12689 13864
DD 77 12695 13862
DD 78 12704 13864
DD 79 12705 13864
DD 80 12714 13862
DD 81 12720 13861
DD 82 12720 13864
DD 83 12725 13861
DD 84 12725 13864
DD 85 12731 13862
DD 86 12740 13864
DD 87 12741 13864
DD 88 12750 13862
DD 89 12756 13861
DD 90 12756 13864
DD 91 12761 13861
DD 92 12761 13864
DD 93 12767 13862
DD 94 12776 13864
DD 95 12777 13864
DD 96 12786 13862
DD 97 12792 13861
DD 98 12792 13864
DD 99 12797 13861
DD 100 12797 13864
DD 101 12803 13862
DD 102 12812 13864
DD 103 12813 13864
DD 104 12822 13862
DD 105 12828 13861
DD 106 12828 13864
DD 107 12833 13861
DD 108 12833 13864
DD 109 12839 13862
DD 110 12848 13864
DD 111 12849 13864
DD 112 12858 13862
DD 113 12859 13862
DD 114 12859 13864
DD 115 12849 13861
DD 116 12849 13862
DD 117 12864 13862
DD 118 12858 13864
DD 119 12833 13862
DD 120 12848 13861
DD 121 12848 13862
DD 122 12839 13861
DD 123 12839 13864
DD 124 12813 13861
DD 125 12813 13862
DD 126 12828 13862
DD 127 12822 13861
DD 128 12822 13864
END

EOF
